1612204
67,8,57,14,7,35,58,15,62,47,1,16,26,44,64,19,3,46,12,53,0,23,60,20,2,41,11,31,55,39,4,18,48,22,59,28,5,24,29,40,63,66,37,6,10,65,25,54,33,45,42,21,30,13,51,32,56,17,9,43,27,49,52,36,61,38,50,34
